29 39
27 25
48 10
9 26
24 22
48 18
3 18
39 31
31 6
16 2
18 42
37 14
46 7
8 5
45 28
36 3
19 46
45 29
13 37
41 16
16 30
17 47
33 19
22 14
36 10
44 45
10 20
34 22
3 10
26 24
26 13
24 31
24 41
22 9
23 44
8 41
11 34
36 38
34 22
1 3
36 14
1 46
43 25
11 43
11 49
27 24
21 22
8 23
20 22
14 11
28 47
32 41
33 11
27 0
40 6
49 39
10 11
10 8
29 34
24 34
37 42
48 5
24 10
27 27
14 25
41 47
27 36
4 28
19 35
46 10
43 18
43 23
29 27
28 36
5 28
37 7
7 32
18 47
29 13
41 26
44 4
8 42
19 46
27 11
15 18
41 39
27 27
30 14
44 8
40 16
49 43
16 41
26 43
32 5
42 6
17 13
24 34
36 38
15 25
34 31
